1956 1276 100 99 98 97 96 95 94 93 92 91 88 87 86 84 82 81 80 79 78 77 75 73 72 71 70 68 67 65 64 63 60 59 58 57 56 55 54 52 51 50 49 48 46 45 44 43 42 41 40 38 37 35 32 31 26 25 24 23 21 16 15 13 10 8 7 6 5 3 